g3 1 1 0
 27 24 1 0 0 0
 9 1
 0 0
 18 0 0
 0 0 0 1
 9 0 0 0 0
 54 9
 0 0
 0 0 0 0 0
C0
o1
o1
o2
n1
o2
n20.333333333333332
o43
o0
n1
o2
n0.3601044702488239
v0
v9
n0
C1
o1
o1
o2
n1
o2
n39
o43
o0
n1
o2
n0.3601044702488239
v3
v12
n0
C2
o1
o1
o2
n1
o2
n20
o43
o0
n1
o2
n0.3601044702488239
v6
v15
n0
C3
o1
o1
o2
n1
o2
n20
o43
o0
n1
o2
n0.26144571127654337
v1
v10
n0
C4
o1
o1
o2
n1
o2
n36.666666666666664
o43
o0
n1
o2
n0.058724728994423596
v4
v13
n0
C5
o1
o1
o2
n1
o2
n20
o43
o0
n1
o2
n0.03170354970629181
v7
v16
n0
C6
o1
o1
o2
n1
o2
n10.333333333333334
o43
o0
n1
o2
n0.26144571127654337
v2
v11
n0
C7
o1
o1
o2
n1
o2
n26.333333333333332
o43
o0
n1
o2
n0.06965524424521047
v5
v14
n0
C8
o1
o1
o2
n1
o2
n15.333333333333334
o43
o0
n1
o2
n0.06965524424521047
v8
v17
n0
C9
n0
C10
n0
C11
n0
C12
n0
C13
n0
C14
n0
C15
n0
C16
n0
C17
n0
C18
n0
C19
n0
C20
n0
C21
n0
C22
n0
C23
n0
O0 0
n0
x27
0 0
1 0
2 0
3 0
4 0
5 0
6 0
7 0
8 0
9 0
10 0
11 0
12 0
13 0
14 0
15 0
16 0
17 0
18 0
19 0
20 0
21 0
22 0
23 0
24 0
25 0
26 0
r
1 0
1 0
1 0
1 0
1 0
1 0
1 0
1 0
1 0
2 73
2 325
2 602
1 53
1 673
1 274
1 0
1 0
1 0
1 0
1 0
1 0
1 0
1 0
1 0
b
0 0 53
0 0 73
0 0 73
0 0 53
0 0 325
0 0 274
0 0 53
0 0 602
0 0 274
0 -10000000000 10000000000
0 -10000000000 10000000000
0 -10000000000 10000000000
0 -10000000000 10000000000
0 -10000000000 10000000000
0 -10000000000 10000000000
0 -10000000000 10000000000
0 -10000000000 10000000000
0 -10000000000 10000000000
0 0 1
0 0 1
0 0 1
0 0 1
0 0 1
0 0 1
0 0 1
0 0 1
0 0 1
k26
4
8
12
16
20
24
28
32
36
37
38
39
40
41
42
43
44
45
46
47
48
49
50
51
52
53
J0 2
0 0
9 0
J1 2
3 0
12 0
J2 2
6 0
15 0
J3 2
1 0
10 0
J4 2
4 0
13 0
J5 2
7 0
16 0
J6 2
2 0
11 0
J7 2
5 0
14 0
J8 2
8 0
17 0
J9 3
0 1
1 1
2 1
J10 3
3 1
4 1
5 1
J11 3
6 1
7 1
8 1
J12 3
0 1
3 1
6 1
J13 3
1 1
4 1
7 1
J14 3
2 1
5 1
8 1
J15 2
0 1
18 -53
J16 2
1 1
19 -73
J17 2
2 1
20 -73
J18 2
3 1
21 -53
J19 2
4 1
22 -325
J20 2
5 1
23 -274
J21 2
6 1
24 -53
J22 2
7 1
25 -602
J23 2
8 1
26 -274
G0 9
9 1
10 1
11 1
12 1
13 1
14 1
15 1
16 1
17 1
